12
48
1109
1040
954
856
1139
1200
1188
1221
1170
1158
935
345
78	88
215	225
347	357
606	616
419	429
505	515
646	656
995	1005
244	254
129	139
568	578
759	769
821	831
298	308
876	886
206	216
130	140
534	544
654	664
74	84
646	656
452	462
952	962
719	729
984	994
576	586
276	286
631	641
377	387
317	327
725	735
233	243
178	188
873	883
755	765
408	418
436	446
722	732
98	108
728	738
277	287
463	473
570	580
893	903
634	644
457	467
865	875
282	292
